nNurses = 167;
nHours = 38;
minHours = 8;
maxHours = 9;
maxConsec = 9;
maxPresence = 7;
demand = [6, 6, 7, 11, 9, 7, 5, 5, 6, 9, 8, 5, 6, 10, 6, 10, 5, 10, 15, 15, 11, 6, 8, 10, 5, 8, 12, 10, 15, 16, 12, 17, 16, 11, 7, 9, 14, 11];
